m = 4; % number of couriers
n = 6; % number of packages

l = [7, 5, 10, 12]; % maximum carriable weight per courier
s = [3, 5, 4, 4, 4, 2]; % weight of each package

D = % distance matrix 
	 [| 2, 5, 2, 7, 2, 5, 8
	 | 4, 6, 5, 6, 4, 2, 7
	 | 4, 7, 5, 3, 5, 7, 7
	 | 6, 3, 6, 4, 7, 7, 4
	 | 5, 6, 2, 7, 2, 6, 6
	 | 5, 4, 4, 4, 4, 4, 7
	 | 6, 6, 2, 2, 3, 4, 7
	 |];